p cnf 97 595
1 2 0
3 2 0
-1 -3 -2 0
4 -5 0
6 7 8 9 10 11 12 13 14 15 16 17 18 19 20 21 22 23 24 25 26 27 28 29 30 31 32 -2 4 0
5 -6 -4 0
5 -7 -4 0
5 -8 -4 0
5 -9 -4 0
5 -10 -4 0
5 -11 -4 0
5 -12 -4 0
5 -13 -4 0
5 -14 -4 0
5 -15 -4 0
5 -16 -4 0
5 -17 -4 0
5 -18 -4 0
5 -19 -4 0
5 -20 -4 0
5 -21 -4 0
5 -22 -4 0
5 -23 -4 0
5 -24 -4 0
5 -25 -4 0
5 -26 -4 0
5 -27 -4 0
5 -28 -4 0
5 -29 -4 0
5 -30 -4 0
5 -31 -4 0
5 -32 -4 0
5 2 -4 0
-1 -33 34 0
-3 -35 -33 34 0
-1 -3 -35 34 0
3 1 -34 0
33 3 1 -34 0
35 1 -34 0
35 33 1 -34 0
33 1 -34 0
33 3 -34 0
35 3 1 -34 0
35 33 3 -34 0
35 33 -34 0
3 6 -36 0
3 34 -36 0
6 34 -36 0
36 -3 -6 0
36 -3 -34 0
36 -6 -34 0
1 7 -37 0
1 36 -37 0
7 36 -37 0
37 -1 -7 0
37 -1 -36 0
37 -7 -36 0
6 8 -38 0
6 37 -38 0
8 37 -38 0
38 -6 -8 0
38 -6 -37 0
38 -8 -37 0
7 9 -39 0
7 38 -39 0
9 38 -39 0
39 -7 -9 0
39 -7 -38 0
39 -9 -38 0
8 10 -40 0
8 39 -40 0
10 39 -40 0
40 -8 -10 0
40 -8 -39 0
40 -10 -39 0
9 11 -41 0
9 40 -41 0
11 40 -41 0
41 -9 -11 0
41 -9 -40 0
41 -11 -40 0
10 12 -42 0
10 41 -42 0
12 41 -42 0
42 -10 -12 0
42 -10 -41 0
42 -12 -41 0
11 13 -43 0
11 42 -43 0
13 42 -43 0
43 -11 -13 0
43 -11 -42 0
43 -13 -42 0
12 14 -44 0
12 43 -44 0
14 43 -44 0
44 -12 -14 0
44 -12 -43 0
44 -14 -43 0
13 15 -45 0
13 44 -45 0
15 44 -45 0
45 -13 -15 0
45 -13 -44 0
45 -15 -44 0
14 16 -46 0
14 45 -46 0
16 45 -46 0
46 -14 -16 0
46 -14 -45 0
46 -16 -45 0
15 17 -47 0
15 46 -47 0
17 46 -47 0
47 -15 -17 0
47 -15 -46 0
47 -17 -46 0
16 18 -48 0
16 47 -48 0
18 47 -48 0
48 -16 -18 0
48 -16 -47 0
48 -18 -47 0
17 19 -49 0
17 48 -49 0
19 48 -49 0
49 -17 -19 0
49 -17 -48 0
49 -19 -48 0
18 20 -50 0
18 49 -50 0
20 49 -50 0
50 -18 -20 0
50 -18 -49 0
50 -20 -49 0
19 21 -51 0
19 50 -51 0
21 50 -51 0
51 -19 -21 0
51 -19 -50 0
51 -21 -50 0
20 22 -52 0
20 51 -52 0
22 51 -52 0
52 -20 -22 0
52 -20 -51 0
52 -22 -51 0
21 23 -53 0
21 52 -53 0
23 52 -53 0
53 -21 -23 0
53 -21 -52 0
53 -23 -52 0
22 24 -54 0
22 53 -54 0
24 53 -54 0
54 -22 -24 0
54 -22 -53 0
54 -24 -53 0
23 25 -55 0
23 54 -55 0
25 54 -55 0
55 -23 -25 0
55 -23 -54 0
55 -25 -54 0
24 26 -56 0
24 55 -56 0
26 55 -56 0
56 -24 -26 0
56 -24 -55 0
56 -26 -55 0
25 27 -57 0
25 56 -57 0
27 56 -57 0
57 -25 -27 0
57 -25 -56 0
57 -27 -56 0
26 28 -58 0
26 57 -58 0
28 57 -58 0
58 -26 -28 0
58 -26 -57 0
58 -28 -57 0
27 29 -59 0
27 58 -59 0
29 58 -59 0
59 -27 -29 0
59 -27 -58 0
59 -29 -58 0
28 30 -60 0
28 59 -60 0
30 59 -60 0
60 -28 -30 0
60 -28 -59 0
60 -30 -59 0
29 31 -61 0
29 60 -61 0
31 60 -61 0
61 -29 -31 0
61 -29 -60 0
61 -31 -60 0
30 32 61 -62 0
32 -30 -61 -62 0
30 -32 -61 -62 0
-30 -32 61 -62 0
-30 -32 -61 62 0
30 -32 61 62 0
32 -30 61 62 0
30 32 -61 62 0
29 31 60 -63 0
31 -29 -60 -63 0
29 -31 -60 -63 0
-29 -31 60 -63 0
-29 -31 -60 63 0
29 -31 60 63 0
31 -29 60 63 0
29 31 -60 63 0
28 30 59 -64 0
30 -28 -59 -64 0
28 -30 -59 -64 0
-28 -30 59 -64 0
-28 -30 -59 64 0
28 -30 59 64 0
30 -28 59 64 0
28 30 -59 64 0
27 29 58 -65 0
29 -27 -58 -65 0
27 -29 -58 -65 0
-27 -29 58 -65 0
-27 -29 -58 65 0
27 -29 58 65 0
29 -27 58 65 0
27 29 -58 65 0
26 28 57 -66 0
28 -26 -57 -66 0
26 -28 -57 -66 0
-26 -28 57 -66 0
-26 -28 -57 66 0
26 -28 57 66 0
28 -26 57 66 0
26 28 -57 66 0
25 27 56 -67 0
27 -25 -56 -67 0
25 -27 -56 -67 0
-25 -27 56 -67 0
-25 -27 -56 67 0
25 -27 56 67 0
27 -25 56 67 0
25 27 -56 67 0
24 26 55 -68 0
26 -24 -55 -68 0
24 -26 -55 -68 0
-24 -26 55 -68 0
-24 -26 -55 68 0
24 -26 55 68 0
26 -24 55 68 0
24 26 -55 68 0
23 25 54 -69 0
25 -23 -54 -69 0
23 -25 -54 -69 0
-23 -25 54 -69 0
-23 -25 -54 69 0
23 -25 54 69 0
25 -23 54 69 0
23 25 -54 69 0
22 24 53 -70 0
24 -22 -53 -70 0
22 -24 -53 -70 0
-22 -24 53 -70 0
-22 -24 -53 70 0
22 -24 53 70 0
24 -22 53 70 0
22 24 -53 70 0
21 23 52 -71 0
23 -21 -52 -71 0
21 -23 -52 -71 0
-21 -23 52 -71 0
-21 -23 -52 71 0
21 -23 52 71 0
23 -21 52 71 0
21 23 -52 71 0
20 22 51 -72 0
22 -20 -51 -72 0
20 -22 -51 -72 0
-20 -22 51 -72 0
-20 -22 -51 72 0
20 -22 51 72 0
22 -20 51 72 0
20 22 -51 72 0
19 21 50 -73 0
21 -19 -50 -73 0
19 -21 -50 -73 0
-19 -21 50 -73 0
-19 -21 -50 73 0
19 -21 50 73 0
21 -19 50 73 0
19 21 -50 73 0
18 20 49 -74 0
20 -18 -49 -74 0
18 -20 -49 -74 0
-18 -20 49 -74 0
-18 -20 -49 74 0
18 -20 49 74 0
20 -18 49 74 0
18 20 -49 74 0
17 19 48 -75 0
19 -17 -48 -75 0
17 -19 -48 -75 0
-17 -19 48 -75 0
-17 -19 -48 75 0
17 -19 48 75 0
19 -17 48 75 0
17 19 -48 75 0
16 18 47 -76 0
18 -16 -47 -76 0
16 -18 -47 -76 0
-16 -18 47 -76 0
-16 -18 -47 76 0
16 -18 47 76 0
18 -16 47 76 0
16 18 -47 76 0
15 17 46 -77 0
17 -15 -46 -77 0
15 -17 -46 -77 0
-15 -17 46 -77 0
-15 -17 -46 77 0
15 -17 46 77 0
17 -15 46 77 0
15 17 -46 77 0
14 16 45 -78 0
16 -14 -45 -78 0
14 -16 -45 -78 0
-14 -16 45 -78 0
-14 -16 -45 78 0
14 -16 45 78 0
16 -14 45 78 0
14 16 -45 78 0
13 15 44 -79 0
15 -13 -44 -79 0
13 -15 -44 -79 0
-13 -15 44 -79 0
-13 -15 -44 79 0
13 -15 44 79 0
15 -13 44 79 0
13 15 -44 79 0
12 14 43 -80 0
14 -12 -43 -80 0
12 -14 -43 -80 0
-12 -14 43 -80 0
-12 -14 -43 80 0
12 -14 43 80 0
14 -12 43 80 0
12 14 -43 80 0
11 13 42 -81 0
13 -11 -42 -81 0
11 -13 -42 -81 0
-11 -13 42 -81 0
-11 -13 -42 81 0
11 -13 42 81 0
13 -11 42 81 0
11 13 -42 81 0
10 12 41 -82 0
12 -10 -41 -82 0
10 -12 -41 -82 0
-10 -12 41 -82 0
-10 -12 -41 82 0
10 -12 41 82 0
12 -10 41 82 0
10 12 -41 82 0
9 11 40 -83 0
11 -9 -40 -83 0
9 -11 -40 -83 0
-9 -11 40 -83 0
-9 -11 -40 83 0
9 -11 40 83 0
11 -9 40 83 0
9 11 -40 83 0
8 10 39 -84 0
10 -8 -39 -84 0
8 -10 -39 -84 0
-8 -10 39 -84 0
-8 -10 -39 84 0
8 -10 39 84 0
10 -8 39 84 0
8 10 -39 84 0
7 9 38 -85 0
9 -7 -38 -85 0
7 -9 -38 -85 0
-7 -9 38 -85 0
-7 -9 -38 85 0
7 -9 38 85 0
9 -7 38 85 0
7 9 -38 85 0
6 8 37 -86 0
8 -6 -37 -86 0
6 -8 -37 -86 0
-6 -8 37 -86 0
-6 -8 -37 86 0
6 -8 37 86 0
8 -6 37 86 0
6 8 -37 86 0
1 7 36 -87 0
7 -1 -36 -87 0
1 -7 -36 -87 0
-1 -7 36 -87 0
-1 -7 -36 87 0
1 -7 36 87 0
7 -1 36 87 0
1 7 -36 87 0
1 88 0
35 33 3 88 0
-1 -35 -88 0
-1 -33 -88 0
-1 -3 -88 0
3 6 34 -89 0
6 -3 -34 -89 0
3 -6 -34 -89 0
-3 -6 34 -89 0
-3 -6 -34 89 0
3 -6 34 89 0
6 -3 34 89 0
3 6 -34 89 0
3 90 0
35 90 0
-3 -35 -90 0
33 1 90 -91 0
1 -33 -90 -91 0
33 -1 -90 -91 0
-1 -33 90 -91 0
-1 -33 -90 91 0
33 -1 90 91 0
1 -33 90 91 0
33 1 -90 91 0
3 -35 -92 0
35 -3 -92 0
-3 -35 92 0
35 3 92 0
-35 93 0
-33 93 0
-5 93 0
92 93 0
91 93 0
-89 93 0
6 7 8 9 10 11 12 13 14 15 16 17 18 19 20 21 22 23 24 25 26 27 28 29 30 31 32 -88 93 0
-87 93 0
-86 93 0
-85 93 0
-84 93 0
-83 93 0
-82 93 0
-81 93 0
-80 93 0
-79 93 0
-78 93 0
-77 93 0
-76 93 0
-75 93 0
-74 93 0
-73 93 0
-72 93 0
-71 93 0
-70 93 0
-69 93 0
-68 93 0
-67 93 0
-66 93 0
-65 93 0
-64 93 0
-63 93 0
-62 93 0
4 93 0
35 33 5 -6 -4 62 63 64 65 66 67 68 69 70 71 72 73 74 75 76 77 78 79 80 81 82 83 84 85 86 87 89 -91 -92 -93 0
35 33 5 -7 -4 62 63 64 65 66 67 68 69 70 71 72 73 74 75 76 77 78 79 80 81 82 83 84 85 86 87 89 -91 -92 -93 0
35 33 5 -8 -4 62 63 64 65 66 67 68 69 70 71 72 73 74 75 76 77 78 79 80 81 82 83 84 85 86 87 89 -91 -92 -93 0
35 33 5 -9 -4 62 63 64 65 66 67 68 69 70 71 72 73 74 75 76 77 78 79 80 81 82 83 84 85 86 87 89 -91 -92 -93 0
35 33 5 -10 -4 62 63 64 65 66 67 68 69 70 71 72 73 74 75 76 77 78 79 80 81 82 83 84 85 86 87 89 -91 -92 -93 0
35 33 5 -11 -4 62 63 64 65 66 67 68 69 70 71 72 73 74 75 76 77 78 79 80 81 82 83 84 85 86 87 89 -91 -92 -93 0
35 33 5 -12 -4 62 63 64 65 66 67 68 69 70 71 72 73 74 75 76 77 78 79 80 81 82 83 84 85 86 87 89 -91 -92 -93 0
35 33 5 -13 -4 62 63 64 65 66 67 68 69 70 71 72 73 74 75 76 77 78 79 80 81 82 83 84 85 86 87 89 -91 -92 -93 0
35 33 5 -14 -4 62 63 64 65 66 67 68 69 70 71 72 73 74 75 76 77 78 79 80 81 82 83 84 85 86 87 89 -91 -92 -93 0
35 33 5 -15 -4 62 63 64 65 66 67 68 69 70 71 72 73 74 75 76 77 78 79 80 81 82 83 84 85 86 87 89 -91 -92 -93 0
35 33 5 -16 -4 62 63 64 65 66 67 68 69 70 71 72 73 74 75 76 77 78 79 80 81 82 83 84 85 86 87 89 -91 -92 -93 0
35 33 5 -17 -4 62 63 64 65 66 67 68 69 70 71 72 73 74 75 76 77 78 79 80 81 82 83 84 85 86 87 89 -91 -92 -93 0
35 33 5 -18 -4 62 63 64 65 66 67 68 69 70 71 72 73 74 75 76 77 78 79 80 81 82 83 84 85 86 87 89 -91 -92 -93 0
35 33 5 -19 -4 62 63 64 65 66 67 68 69 70 71 72 73 74 75 76 77 78 79 80 81 82 83 84 85 86 87 89 -91 -92 -93 0
35 33 5 -20 -4 62 63 64 65 66 67 68 69 70 71 72 73 74 75 76 77 78 79 80 81 82 83 84 85 86 87 89 -91 -92 -93 0
35 33 5 -21 -4 62 63 64 65 66 67 68 69 70 71 72 73 74 75 76 77 78 79 80 81 82 83 84 85 86 87 89 -91 -92 -93 0
35 33 5 -22 -4 62 63 64 65 66 67 68 69 70 71 72 73 74 75 76 77 78 79 80 81 82 83 84 85 86 87 89 -91 -92 -93 0
35 33 5 -23 -4 62 63 64 65 66 67 68 69 70 71 72 73 74 75 76 77 78 79 80 81 82 83 84 85 86 87 89 -91 -92 -93 0
35 33 5 -24 -4 62 63 64 65 66 67 68 69 70 71 72 73 74 75 76 77 78 79 80 81 82 83 84 85 86 87 89 -91 -92 -93 0
35 33 5 -25 -4 62 63 64 65 66 67 68 69 70 71 72 73 74 75 76 77 78 79 80 81 82 83 84 85 86 87 89 -91 -92 -93 0
35 33 5 -26 -4 62 63 64 65 66 67 68 69 70 71 72 73 74 75 76 77 78 79 80 81 82 83 84 85 86 87 89 -91 -92 -93 0
35 33 5 -27 -4 62 63 64 65 66 67 68 69 70 71 72 73 74 75 76 77 78 79 80 81 82 83 84 85 86 87 89 -91 -92 -93 0
35 33 5 -28 -4 62 63 64 65 66 67 68 69 70 71 72 73 74 75 76 77 78 79 80 81 82 83 84 85 86 87 89 -91 -92 -93 0
35 33 5 -29 -4 62 63 64 65 66 67 68 69 70 71 72 73 74 75 76 77 78 79 80 81 82 83 84 85 86 87 89 -91 -92 -93 0
35 33 5 -30 -4 62 63 64 65 66 67 68 69 70 71 72 73 74 75 76 77 78 79 80 81 82 83 84 85 86 87 89 -91 -92 -93 0
35 33 5 -31 -4 62 63 64 65 66 67 68 69 70 71 72 73 74 75 76 77 78 79 80 81 82 83 84 85 86 87 89 -91 -92 -93 0
35 33 5 -4 -32 62 63 64 65 66 67 68 69 70 71 72 73 74 75 76 77 78 79 80 81 82 83 84 85 86 87 89 -91 -92 -93 0
35 33 5 -4 62 63 64 65 66 67 68 69 70 71 72 73 74 75 76 77 78 79 80 81 82 83 84 85 86 87 88 89 -91 -92 -93 0
-35 94 0
-33 94 0
-3 94 0
35 33 3 -94 0
-6 95 0
-7 95 0
-8 95 0
-9 95 0
-10 95 0
-11 95 0
-12 95 0
-13 95 0
-14 95 0
-15 95 0
-16 95 0
-17 95 0
-18 95 0
-19 95 0
-20 95 0
-21 95 0
-22 95 0
-23 95 0
-24 95 0
-25 95 0
-26 95 0
-27 95 0
-28 95 0
-29 95 0
-30 95 0
-31 95 0
-32 95 0
-1 -94 95 0
1 6 7 8 9 10 11 12 13 14 15 16 17 18 19 20 21 22 23 24 25 26 27 28 29 30 31 32 -95 0
6 7 8 9 10 11 12 13 14 15 16 17 18 19 20 21 22 23 24 25 26 27 28 29 30 31 32 94 -95 0
-6 96 0
-7 96 0
-8 96 0
-9 96 0
-10 96 0
-11 96 0
-12 96 0
-13 96 0
-14 96 0
-15 96 0
-16 96 0
-17 96 0
-18 96 0
-19 96 0
-20 96 0
-21 96 0
-22 96 0
-23 96 0
-24 96 0
-25 96 0
-26 96 0
-27 96 0
-28 96 0
-29 96 0
-30 96 0
-31 96 0
-32 96 0
-1 -94 96 0
1 6 7 8 9 10 11 12 13 14 15 16 17 18 19 20 21 22 23 24 25 26 27 28 29 30 31 32 -96 0
6 7 8 9 10 11 12 13 14 15 16 17 18 19 20 21 22 23 24 25 26 27 28 29 30 31 32 94 -96 0
-6 97 0
-7 97 0
-8 97 0
-9 97 0
-10 97 0
-11 97 0
-12 97 0
-13 97 0
-14 97 0
-15 97 0
-16 97 0
-17 97 0
-18 97 0
-19 97 0
-20 97 0
-21 97 0
-22 97 0
-23 97 0
-24 97 0
-25 97 0
-26 97 0
-27 97 0
-28 97 0
-29 97 0
-30 97 0
-31 97 0
-32 97 0
-1 -3 97 0
1 6 7 8 9 10 11 12 13 14 15 16 17 18 19 20 21 22 23 24 25 26 27 28 29 30 31 32 -97 0
3 6 7 8 9 10 11 12 13 14 15 16 17 18 19 20 21 22 23 24 25 26 27 28 29 30 31 32 -97 0
5 -93 -96 97 0
5 97 -96 0
c 35 k!0
c 33 k!1
c 3 k!2
c 1 k!3
c 6 k!4
c 7 k!5
c 8 k!6
c 9 k!7
c 10 k!8
c 11 k!9
c 12 k!10
c 13 k!11
c 14 k!12
c 15 k!13
c 16 k!14
c 17 k!15
c 18 k!16
c 19 k!17
c 20 k!18
c 21 k!19
c 22 k!20
c 23 k!21
c 24 k!22
c 25 k!23
c 26 k!24
c 27 k!25
c 28 k!26
c 29 k!27
c 30 k!28
c 31 k!29
c 32 k!30
c 5 k!31
c 2 k!32
c 4 k!33
c 34 k!34
c 36 k!35
c 37 k!36
c 38 k!37
c 39 k!38
c 40 k!39
c 41 k!40
c 42 k!41
c 43 k!42
c 44 k!43
c 45 k!44
c 46 k!45
c 47 k!46
c 48 k!47
c 49 k!48
c 50 k!49
c 51 k!50
c 52 k!51
c 53 k!52
c 54 k!53
c 55 k!54
c 56 k!55
c 57 k!56
c 58 k!57
c 59 k!58
c 60 k!59
c 61 k!60
c 62 k!61
c 63 k!62
c 64 k!63
c 65 k!64
c 66 k!65
c 67 k!66
c 68 k!67
c 69 k!68
c 70 k!69
c 71 k!70
c 72 k!71
c 73 k!72
c 74 k!73
c 75 k!74
c 76 k!75
c 77 k!76
c 78 k!77
c 79 k!78
c 80 k!79
c 81 k!80
c 82 k!81
c 83 k!82
c 84 k!83
c 85 k!84
c 86 k!85
c 87 k!86
c 88 k!87
c 89 k!88
c 90 k!89
c 91 k!90
c 92 k!91
c 93 k!92
c 94 k!93
c 95 k!94
c 96 k!95
c 97 k!96